NAME : U159A.51686.tour
COMMENT : Cost = 0_51686
COMMENT : Found by LKH [Keld Helsgaun] Sun Sep 17 16:52:43 2017
TYPE : TOUR
DIMENSION : 159
TOUR_SECTION
1
159
156
155
149
145
143
18
19
20
21
23
22
24
25
26
27
28
29
30
31
33
34
37
36
38
39
40
41
135
136
133
134
132
42
123
122
44
43
45
46
48
47
49
50
51
74
75
77
81
80
79
78
72
71
70
68
69
67
65
66
64
62
61
63
54
60
59
58
57
56
55
53
52
73
76
82
83
85
84
86
87
88
89
91
119
120
121
114
115
116
117
118
93
92
90
94
95
96
97
98
99
102
103
100
101
105
104
106
107
108
109
110
111
112
113
124
129
128
130
131
127
125
126
158
157
154
7
8
9
10
12
11
13
14
15
16
17
32
35
138
137
140
139
141
142
144
146
147
148
150
151
152
153
6
5
4
2
3
-1
EOF
